; 
(set-info :status unknown)
(declare-fun __node_65 () Bool)
(declare-fun __node_76 () Bool)
(declare-fun __node_84 () Bool)
(declare-fun __nodeactive_65 () Bool)
(declare-fun __nodeactive_76 () Bool)
(declare-fun __nodeactive_84 () Bool)
(declare-fun __noderelax_65 () Bool)
(declare-fun __noderelax_76 () Bool)
(declare-fun __noderelax_84 () Bool)
(declare-fun __node_66 () Bool)
(declare-fun __edge_73 () Bool)
(declare-fun __nodedistance_66 () (_ BitVec 4))
(declare-fun __nodedistance_65 () (_ BitVec 4))
(declare-fun __node_67 () Bool)
(declare-fun __edge_74 () Bool)
(declare-fun __nodedistance_67 () (_ BitVec 4))
(declare-fun __node_68 () Bool)
(declare-fun __edge_75 () Bool)
(declare-fun __nodedistance_68 () (_ BitVec 4))
(declare-fun __node_69 () Bool)
(declare-fun __edge_76 () Bool)
(declare-fun __nodedistance_69 () (_ BitVec 4))
(declare-fun __node_70 () Bool)
(declare-fun __edge_77 () Bool)
(declare-fun __nodedistance_70 () (_ BitVec 4))
(declare-fun __node_71 () Bool)
(declare-fun __edge_78 () Bool)
(declare-fun __nodedistance_71 () (_ BitVec 4))
(declare-fun __node_72 () Bool)
(declare-fun __edge_79 () Bool)
(declare-fun __nodedistance_72 () (_ BitVec 4))
(declare-fun __node_73 () Bool)
(declare-fun __edge_80 () Bool)
(declare-fun __nodedistance_73 () (_ BitVec 4))
(declare-fun __node_74 () Bool)
(declare-fun __edge_81 () Bool)
(declare-fun __nodedistance_74 () (_ BitVec 4))
(declare-fun __node_75 () Bool)
(declare-fun __edge_82 () Bool)
(declare-fun __nodedistance_75 () (_ BitVec 4))
(declare-fun __edge_83 () Bool)
(declare-fun __nodedistance_76 () (_ BitVec 4))
(declare-fun __edge_84 () Bool)
(declare-fun __node_77 () Bool)
(declare-fun __edge_85 () Bool)
(declare-fun __nodedistance_77 () (_ BitVec 4))
(declare-fun __node_78 () Bool)
(declare-fun __edge_86 () Bool)
(declare-fun __nodedistance_78 () (_ BitVec 4))
(declare-fun __node_79 () Bool)
(declare-fun __edge_87 () Bool)
(declare-fun __nodedistance_79 () (_ BitVec 4))
(declare-fun __node_80 () Bool)
(declare-fun __edge_88 () Bool)
(declare-fun __nodedistance_80 () (_ BitVec 4))
(declare-fun __node_81 () Bool)
(declare-fun __edge_89 () Bool)
(declare-fun __nodedistance_81 () (_ BitVec 4))
(declare-fun __node_82 () Bool)
(declare-fun __edge_90 () Bool)
(declare-fun __nodedistance_82 () (_ BitVec 4))
(declare-fun __node_83 () Bool)
(declare-fun __edge_91 () Bool)
(declare-fun __nodedistance_83 () (_ BitVec 4))
(declare-fun __edge_92 () Bool)
(declare-fun __nodedistance_84 () (_ BitVec 4))
(declare-fun __edge_93 () Bool)
(declare-fun __edge_94 () Bool)
(declare-fun __pathbound () (_ BitVec 4))
(declare-fun __nodebound () (_ BitVec 5))
(declare-fun __edgebound () (_ BitVec 5))
(declare-fun __noderelax_66 () Bool)
(declare-fun __nodeactive_66 () Bool)
(declare-fun __noderelax_67 () Bool)
(declare-fun __nodeactive_67 () Bool)
(declare-fun __noderelax_68 () Bool)
(declare-fun __nodeactive_68 () Bool)
(declare-fun __noderelax_69 () Bool)
(declare-fun __nodeactive_69 () Bool)
(declare-fun __noderelax_70 () Bool)
(declare-fun __nodeactive_70 () Bool)
(declare-fun __noderelax_71 () Bool)
(declare-fun __nodeactive_71 () Bool)
(declare-fun __noderelax_72 () Bool)
(declare-fun __nodeactive_72 () Bool)
(declare-fun __noderelax_73 () Bool)
(declare-fun __nodeactive_73 () Bool)
(declare-fun __noderelax_75 () Bool)
(declare-fun __nodeactive_75 () Bool)
(declare-fun __noderelax_77 () Bool)
(declare-fun __nodeactive_77 () Bool)
(declare-fun __noderelax_78 () Bool)
(declare-fun __nodeactive_78 () Bool)
(declare-fun __noderelax_79 () Bool)
(declare-fun __nodeactive_79 () Bool)
(declare-fun __noderelax_80 () Bool)
(declare-fun __nodeactive_80 () Bool)
(declare-fun __noderelax_81 () Bool)
(declare-fun __nodeactive_81 () Bool)
(declare-fun __noderelax_82 () Bool)
(declare-fun __nodeactive_82 () Bool)
(declare-fun __noderelax_83 () Bool)
(declare-fun __nodeactive_83 () Bool)
(declare-fun __nodestatusrelaxbound () (_ BitVec 6))
(declare-fun __edgepathflag_94 () Bool)
(declare-fun __edgepathflag_93 () Bool)
(declare-fun __edgepathflag_92 () Bool)
(declare-fun __edgepathflag_91 () Bool)
(declare-fun __edgepathflag_90 () Bool)
(declare-fun __edgepathflag_88 () Bool)
(declare-fun __edgepathflag_87 () Bool)
(declare-fun __edgepathflag_86 () Bool)
(declare-fun __edgepathflag_85 () Bool)
(declare-fun __edgepathflag_84 () Bool)
(declare-fun __edgepathflag_83 () Bool)
(declare-fun __edgepathflag_82 () Bool)
(declare-fun __edgepathflag_81 () Bool)
(declare-fun __edgepathflag_80 () Bool)
(declare-fun __edgepathflag_79 () Bool)
(declare-fun __edgepathflag_78 () Bool)
(declare-fun __edgepathflag_77 () Bool)
(declare-fun __edgepathflag_76 () Bool)
(declare-fun __edgepathflag_75 () Bool)
(declare-fun __edgepathflag_74 () Bool)
(declare-fun __edgepathflag_73 () Bool)
(declare-fun __edgepathflag_89 () Bool)
(declare-fun __edgerelax_73 () Bool)
(declare-fun __edgerelax_74 () Bool)
(declare-fun __edgerelax_75 () Bool)
(declare-fun __edgerelax_76 () Bool)
(declare-fun __edgerelax_77 () Bool)
(declare-fun __edgerelax_78 () Bool)
(declare-fun __edgerelax_79 () Bool)
(declare-fun __edgerelax_80 () Bool)
(declare-fun __edgerelax_81 () Bool)
(declare-fun __nodeactive_74 () Bool)
(declare-fun __edgerelax_82 () Bool)
(declare-fun __edgerelax_83 () Bool)
(declare-fun __edgerelax_84 () Bool)
(declare-fun __edgerelax_85 () Bool)
(declare-fun __edgerelax_86 () Bool)
(declare-fun __edgerelax_87 () Bool)
(declare-fun __edgerelax_88 () Bool)
(declare-fun __edgerelax_89 () Bool)
(declare-fun __edgerelax_90 () Bool)
(declare-fun __edgerelax_91 () Bool)
(declare-fun __edgerelax_92 () Bool)
(declare-fun __edgerelax_93 () Bool)
(declare-fun __edgerelax_94 () Bool)
(declare-fun __edgestatusrelaxbound () (_ BitVec 5))
(assert
 __node_65)
(assert
 __node_76)
(assert
 __node_84)
(assert
 __nodeactive_65)
(assert
 __nodeactive_76)
(assert
 __nodeactive_84)
(assert
 (not __noderelax_65))
(assert
 (not __noderelax_76))
(assert
 (not __noderelax_84))
(assert
 (=> __edge_73 (and __node_65 __node_66)))
(assert
 (=> __edge_73 (bvult __nodedistance_65 __nodedistance_66)))
(assert
 (=> __edge_74 (and __node_65 __node_67)))
(assert
 (=> __edge_74 (bvult __nodedistance_65 __nodedistance_67)))
(assert
 (=> __edge_75 (and __node_65 __node_68)))
(assert
 (=> __edge_75 (bvult __nodedistance_65 __nodedistance_68)))
(assert
 (=> __edge_76 (and __node_66 __node_69)))
(assert
 (=> __edge_76 (bvult __nodedistance_66 __nodedistance_69)))
(assert
 (=> __edge_77 (and __node_67 __node_70)))
(assert
 (=> __edge_77 (bvult __nodedistance_67 __nodedistance_70)))
(assert
 (=> __edge_78 (and __node_68 __node_71)))
(assert
 (=> __edge_78 (bvult __nodedistance_68 __nodedistance_71)))
(assert
 (=> __edge_79 (and __node_69 __node_72)))
(assert
 (=> __edge_79 (bvult __nodedistance_69 __nodedistance_72)))
(assert
 (=> __edge_80 (and __node_70 __node_73)))
(assert
 (=> __edge_80 (bvult __nodedistance_70 __nodedistance_73)))
(assert
 (=> __edge_81 (and __node_71 __node_74)))
(assert
 (=> __edge_81 (bvult __nodedistance_71 __nodedistance_74)))
(assert
 (=> __edge_82 (and __node_72 __node_75)))
(assert
 (=> __edge_82 (bvult __nodedistance_72 __nodedistance_75)))
(assert
 (=> __edge_83 (and __node_72 __node_76)))
(assert
 (=> __edge_83 (bvult __nodedistance_72 __nodedistance_76)))
(assert
 (=> __edge_84 (and __node_73 __node_76)))
(assert
 (=> __edge_84 (bvult __nodedistance_73 __nodedistance_76)))
(assert
 (=> __edge_85 (and __node_75 __node_77)))
(assert
 (=> __edge_85 (bvult __nodedistance_75 __nodedistance_77)))
(assert
 (=> __edge_86 (and __node_76 __node_78)))
(assert
 (=> __edge_86 (bvult __nodedistance_76 __nodedistance_78)))
(assert
 (=> __edge_87 (and __node_77 __node_79)))
(assert
 (=> __edge_87 (bvult __nodedistance_77 __nodedistance_79)))
(assert
 (=> __edge_88 (and __node_78 __node_80)))
(assert
 (=> __edge_88 (bvult __nodedistance_78 __nodedistance_80)))
(assert
 (=> __edge_89 (and __node_74 __node_81)))
(assert
 (=> __edge_89 (bvult __nodedistance_74 __nodedistance_81)))
(assert
 (=> __edge_90 (and __node_79 __node_82)))
(assert
 (=> __edge_90 (bvult __nodedistance_79 __nodedistance_82)))
(assert
 (=> __edge_91 (and __node_80 __node_83)))
(assert
 (=> __edge_91 (bvult __nodedistance_80 __nodedistance_83)))
(assert
 (=> __edge_92 (and __node_81 __node_84)))
(assert
 (=> __edge_92 (bvult __nodedistance_81 __nodedistance_84)))
(assert
 (=> __edge_93 (and __node_82 __node_83)))
(assert
 (=> __edge_93 (bvult __nodedistance_82 __nodedistance_83)))
(assert
 (=> __edge_94 (and __node_83 __node_84)))
(assert
 (=> __edge_94 (bvult __nodedistance_83 __nodedistance_84)))
(assert
 (bvule __nodedistance_84 __pathbound))
(assert
 (bvule __pathbound (_ bv10 4)))
(assert
 (=> __node_65 (or (or (or false __edge_73) __edge_74) __edge_75)))
(assert
 (=> __node_84 (or (or false __edge_92) __edge_94)))
(assert
 (=> __node_66 (and (or false __edge_73) (or false __edge_76))))
(assert
 (=> __node_67 (and (or false __edge_74) (or false __edge_77))))
(assert
 (=> __node_68 (and (or false __edge_75) (or false __edge_78))))
(assert
 (=> __node_69 (and (or false __edge_76) (or false __edge_79))))
(assert
 (=> __node_70 (and (or false __edge_77) (or false __edge_80))))
(assert
 (=> __node_71 (and (or false __edge_78) (or false __edge_81))))
(assert
 (let (($x276 (or false __edge_79)))
 (=> __node_72 (and $x276 (or (or false __edge_82) __edge_83)))))
(assert
 (=> __node_73 (and (or false __edge_80) (or false __edge_84))))
(assert
 (=> __node_74 (and (or false __edge_81) (or false __edge_89))))
(assert
 (=> __node_75 (and (or false __edge_82) (or false __edge_85))))
(assert
 (let (($x300 (or false __edge_86)))
 (=> __node_76 (and (or (or false __edge_83) __edge_84) $x300))))
(assert
 (=> __node_77 (and (or false __edge_85) (or false __edge_87))))
(assert
 (=> __node_78 (and (or false __edge_86) (or false __edge_88))))
(assert
 (=> __node_79 (and (or false __edge_87) (or false __edge_90))))
(assert
 (=> __node_80 (and (or false __edge_88) (or false __edge_91))))
(assert
 (=> __node_81 (and (or false __edge_89) (or false __edge_92))))
(assert
 (=> __node_82 (and (or false __edge_90) (or false __edge_93))))
(assert
 (let (($x322 (and (or (or false __edge_91) __edge_93) (or false __edge_94))))
 (=> __node_83 $x322)))
(assert
 (bvule __nodebound (_ bv20 5)))
(assert
 (let ((?x329 (bvadd (_ bv0 5) (ite __node_65 (_ bv1 5) (_ bv0 5)))))
 (let ((?x331 (bvadd ?x329 (ite __node_66 (_ bv1 5) (_ bv0 5)))))
 (let ((?x333 (bvadd ?x331 (ite __node_67 (_ bv1 5) (_ bv0 5)))))
 (let ((?x335 (bvadd ?x333 (ite __node_68 (_ bv1 5) (_ bv0 5)))))
 (let ((?x337 (bvadd ?x335 (ite __node_69 (_ bv1 5) (_ bv0 5)))))
 (let ((?x339 (bvadd ?x337 (ite __node_70 (_ bv1 5) (_ bv0 5)))))
 (let ((?x341 (bvadd ?x339 (ite __node_71 (_ bv1 5) (_ bv0 5)))))
 (let ((?x343 (bvadd ?x341 (ite __node_72 (_ bv1 5) (_ bv0 5)))))
 (let ((?x345 (bvadd ?x343 (ite __node_73 (_ bv1 5) (_ bv0 5)))))
 (let ((?x347 (bvadd ?x345 (ite __node_74 (_ bv1 5) (_ bv0 5)))))
 (let ((?x349 (bvadd ?x347 (ite __node_75 (_ bv1 5) (_ bv0 5)))))
 (let ((?x351 (bvadd ?x349 (ite __node_76 (_ bv1 5) (_ bv0 5)))))
 (let ((?x353 (bvadd ?x351 (ite __node_77 (_ bv1 5) (_ bv0 5)))))
 (let ((?x355 (bvadd ?x353 (ite __node_78 (_ bv1 5) (_ bv0 5)))))
 (let ((?x357 (bvadd ?x355 (ite __node_79 (_ bv1 5) (_ bv0 5)))))
 (let ((?x359 (bvadd ?x357 (ite __node_80 (_ bv1 5) (_ bv0 5)))))
 (let ((?x361 (bvadd ?x359 (ite __node_81 (_ bv1 5) (_ bv0 5)))))
 (let ((?x363 (bvadd ?x361 (ite __node_82 (_ bv1 5) (_ bv0 5)))))
 (let ((?x365 (bvadd ?x363 (ite __node_83 (_ bv1 5) (_ bv0 5)))))
 (bvule (bvadd ?x365 (ite __node_84 (_ bv1 5) (_ bv0 5))) __nodebound)))))))))))))))))))))
(assert
 (bvule __edgebound (_ bv22 5)))
(assert
 (let ((?x372 (bvadd (_ bv0 5) (ite __edge_73 (_ bv1 5) (_ bv0 5)))))
 (let ((?x374 (bvadd ?x372 (ite __edge_74 (_ bv1 5) (_ bv0 5)))))
 (let ((?x376 (bvadd ?x374 (ite __edge_75 (_ bv1 5) (_ bv0 5)))))
 (let ((?x378 (bvadd ?x376 (ite __edge_76 (_ bv1 5) (_ bv0 5)))))
 (let ((?x380 (bvadd ?x378 (ite __edge_77 (_ bv1 5) (_ bv0 5)))))
 (let ((?x382 (bvadd ?x380 (ite __edge_78 (_ bv1 5) (_ bv0 5)))))
 (let ((?x384 (bvadd ?x382 (ite __edge_79 (_ bv1 5) (_ bv0 5)))))
 (let ((?x386 (bvadd ?x384 (ite __edge_80 (_ bv1 5) (_ bv0 5)))))
 (let ((?x388 (bvadd ?x386 (ite __edge_81 (_ bv1 5) (_ bv0 5)))))
 (let ((?x390 (bvadd ?x388 (ite __edge_82 (_ bv1 5) (_ bv0 5)))))
 (let ((?x392 (bvadd ?x390 (ite __edge_83 (_ bv1 5) (_ bv0 5)))))
 (let ((?x394 (bvadd ?x392 (ite __edge_84 (_ bv1 5) (_ bv0 5)))))
 (let ((?x396 (bvadd ?x394 (ite __edge_85 (_ bv1 5) (_ bv0 5)))))
 (let ((?x398 (bvadd ?x396 (ite __edge_86 (_ bv1 5) (_ bv0 5)))))
 (let ((?x400 (bvadd ?x398 (ite __edge_87 (_ bv1 5) (_ bv0 5)))))
 (let ((?x402 (bvadd ?x400 (ite __edge_88 (_ bv1 5) (_ bv0 5)))))
 (let ((?x404 (bvadd ?x402 (ite __edge_89 (_ bv1 5) (_ bv0 5)))))
 (let ((?x406 (bvadd ?x404 (ite __edge_90 (_ bv1 5) (_ bv0 5)))))
 (let ((?x408 (bvadd ?x406 (ite __edge_91 (_ bv1 5) (_ bv0 5)))))
 (let ((?x410 (bvadd ?x408 (ite __edge_92 (_ bv1 5) (_ bv0 5)))))
 (let ((?x412 (bvadd ?x410 (ite __edge_93 (_ bv1 5) (_ bv0 5)))))
 (bvule (bvadd ?x412 (ite __edge_94 (_ bv1 5) (_ bv0 5))) __edgebound)))))))))))))))))))))))
(assert
 (let (($x418 (and __node_66 __nodeactive_66)))
 (let (($x419 (not $x418)))
 (= $x419 __noderelax_66))))
(assert
 (let (($x423 (and __node_67 __nodeactive_67)))
 (let (($x424 (not $x423)))
 (= $x424 __noderelax_67))))
(assert
 (let (($x428 (and __node_68 __nodeactive_68)))
 (let (($x429 (not $x428)))
 (= $x429 __noderelax_68))))
(assert
 (let (($x433 (and __node_69 __nodeactive_69)))
 (let (($x434 (not $x433)))
 (= $x434 __noderelax_69))))
(assert
 (let (($x438 (and __node_70 __nodeactive_70)))
 (let (($x439 (not $x438)))
 (= $x439 __noderelax_70))))
(assert
 (let (($x443 (and __node_71 __nodeactive_71)))
 (let (($x444 (not $x443)))
 (= $x444 __noderelax_71))))
(assert
 (let (($x448 (and __node_72 __nodeactive_72)))
 (let (($x449 (not $x448)))
 (= $x449 __noderelax_72))))
(assert
 (let (($x453 (and __node_73 __nodeactive_73)))
 (let (($x454 (not $x453)))
 (= $x454 __noderelax_73))))
(assert
 (let (($x458 (and __node_75 __nodeactive_75)))
 (let (($x459 (not $x458)))
 (= $x459 __noderelax_75))))
(assert
 (let (($x463 (and __node_76 __nodeactive_76)))
 (let (($x464 (not $x463)))
 (= $x464 __noderelax_76))))
(assert
 (let (($x468 (and __node_77 __nodeactive_77)))
 (= $x468 __noderelax_77)))
(assert
 (let (($x472 (and __node_78 __nodeactive_78)))
 (= $x472 __noderelax_78)))
(assert
 (let (($x476 (and __node_79 __nodeactive_79)))
 (let (($x477 (not $x476)))
 (= $x477 __noderelax_79))))
(assert
 (let (($x481 (and __node_80 __nodeactive_80)))
 (let (($x482 (not $x481)))
 (= $x482 __noderelax_80))))
(assert
 (let (($x486 (and __node_81 __nodeactive_81)))
 (= $x486 __noderelax_81)))
(assert
 (let (($x490 (and __node_82 __nodeactive_82)))
 (= $x490 __noderelax_82)))
(assert
 (let (($x494 (and __node_83 __nodeactive_83)))
 (= $x494 __noderelax_83)))
(assert
 (let ((?x422 (bvadd (_ bv0 6) (ite (not (and __node_66 __nodeactive_66)) (_ bv1 6) (_ bv0 6)))))
 (let ((?x427 (bvadd ?x422 (ite (not (and __node_67 __nodeactive_67)) (_ bv1 6) (_ bv0 6)))))
 (let ((?x432 (bvadd ?x427 (ite (not (and __node_68 __nodeactive_68)) (_ bv1 6) (_ bv0 6)))))
 (let ((?x437 (bvadd ?x432 (ite (not (and __node_69 __nodeactive_69)) (_ bv1 6) (_ bv0 6)))))
 (let ((?x442 (bvadd ?x437 (ite (not (and __node_70 __nodeactive_70)) (_ bv1 6) (_ bv0 6)))))
 (let ((?x447 (bvadd ?x442 (ite (not (and __node_71 __nodeactive_71)) (_ bv1 6) (_ bv0 6)))))
 (let ((?x452 (bvadd ?x447 (ite (not (and __node_72 __nodeactive_72)) (_ bv1 6) (_ bv0 6)))))
 (let ((?x457 (bvadd ?x452 (ite (not (and __node_73 __nodeactive_73)) (_ bv1 6) (_ bv0 6)))))
 (let ((?x462 (bvadd ?x457 (ite (not (and __node_75 __nodeactive_75)) (_ bv1 6) (_ bv0 6)))))
 (let ((?x467 (bvadd ?x462 (ite (not (and __node_76 __nodeactive_76)) (_ bv1 6) (_ bv0 6)))))
 (let ((?x471 (bvadd ?x467 (ite (and __node_77 __nodeactive_77) (_ bv1 6) (_ bv0 6)))))
 (let ((?x475 (bvadd ?x471 (ite (and __node_78 __nodeactive_78) (_ bv1 6) (_ bv0 6)))))
 (let ((?x480 (bvadd ?x475 (ite (not (and __node_79 __nodeactive_79)) (_ bv1 6) (_ bv0 6)))))
 (let ((?x485 (bvadd ?x480 (ite (not (and __node_80 __nodeactive_80)) (_ bv1 6) (_ bv0 6)))))
 (let ((?x489 (bvadd ?x485 (ite (and __node_81 __nodeactive_81) (_ bv1 6) (_ bv0 6)))))
 (let ((?x493 (bvadd ?x489 (ite (and __node_82 __nodeactive_82) (_ bv1 6) (_ bv0 6)))))
 (bvule (bvadd ?x493 (ite (and __node_83 __nodeactive_83) (_ bv1 6) (_ bv0 6))) __nodestatusrelaxbound))))))))))))))))))
(assert
 (let (($x514 (and true __edgepathflag_73)))
 (let (($x515 (and $x514 __edgepathflag_74)))
 (let (($x517 (and true (and $x515 __edgepathflag_75))))
 (let (($x519 (and $x517 (and true __edgepathflag_76))))
 (let (($x521 (and $x519 (and true __edgepathflag_77))))
 (let (($x523 (and $x521 (and true __edgepathflag_78))))
 (let (($x525 (and $x523 (and true __edgepathflag_79))))
 (let (($x527 (and $x525 (and true __edgepathflag_80))))
 (let (($x529 (and $x527 (and true __edgepathflag_81))))
 (let (($x532 (and $x529 (and (and true __edgepathflag_82) __edgepathflag_83))))
 (let (($x534 (and $x532 (and true __edgepathflag_84))))
 (let (($x536 (and $x534 (and true __edgepathflag_85))))
 (let (($x538 (and $x536 (and true __edgepathflag_86))))
 (let (($x540 (and $x538 (and true __edgepathflag_87))))
 (let (($x542 (and $x540 (and true __edgepathflag_88))))
 (let (($x544 (and $x542 (and true __edgepathflag_90))))
 (let (($x546 (and $x544 (and true __edgepathflag_91))))
 (let (($x548 (and $x546 (and true __edgepathflag_92))))
 (let (($x550 (and $x548 (and true __edgepathflag_93))))
 (let (($x510 (=> (or false (and __edge_81 (not __edgepathflag_81))) (and true (not __edgepathflag_89)))))
 (let (($x500 (and true (=> __edge_92 __edgepathflag_92))))
 (let (($x504 (and true (and true (and $x500 (=> __edge_94 __edgepathflag_94))))))
 (let (($x512 (and $x504 (and true $x510))))
 (let (($x513 (and $x512 true)))
 (and $x513 (and $x550 (and true __edgepathflag_94))))))))))))))))))))))))))))
(assert
 (let (($x556 (and __node_66 (not __nodeactive_66))))
 (let (($x560 (and __node_65 (not __nodeactive_65))))
 (let (($x558 (or false (and (and __node_65 __nodeactive_65) $x556))))
 (let (($x562 (or $x558 (and $x560 (and __node_66 __nodeactive_66)))))
 (let (($x564 (or $x562 (and $x560 $x556))))
 (= $x564 __edgerelax_73)))))))
(assert
 (let (($x569 (and __node_67 (not __nodeactive_67))))
 (let (($x560 (and __node_65 (not __nodeactive_65))))
 (let (($x571 (or false (and (and __node_65 __nodeactive_65) $x569))))
 (let (($x573 (or $x571 (and $x560 (and __node_67 __nodeactive_67)))))
 (let (($x575 (or $x573 (and $x560 $x569))))
 (= $x575 __edgerelax_74)))))))
(assert
 (let (($x580 (and __node_68 (not __nodeactive_68))))
 (let (($x560 (and __node_65 (not __nodeactive_65))))
 (let (($x582 (or false (and (and __node_65 __nodeactive_65) $x580))))
 (let (($x584 (or $x582 (and $x560 (and __node_68 __nodeactive_68)))))
 (let (($x586 (or $x584 (and $x560 $x580))))
 (= $x586 __edgerelax_75)))))))
(assert
 (let (($x593 (and __node_69 (not __nodeactive_69))))
 (let (($x556 (and __node_66 (not __nodeactive_66))))
 (let (($x433 (and __node_69 __nodeactive_69)))
 (let (($x418 (and __node_66 __nodeactive_66)))
 (let (($x591 (or false (and $x418 $x433))))
 (let (($x595 (or $x591 (and $x556 $x593))))
 (= $x595 __edgerelax_76))))))))
(assert
 (let (($x600 (and __node_70 (not __nodeactive_70))))
 (let (($x569 (and __node_67 (not __nodeactive_67))))
 (let (($x602 (or false (and (and __node_67 __nodeactive_67) $x600))))
 (let (($x604 (or $x602 (and $x569 (and __node_70 __nodeactive_70)))))
 (let (($x606 (or $x604 (and $x569 $x600))))
 (= $x606 __edgerelax_77)))))))
(assert
 (let (($x613 (and __node_71 (not __nodeactive_71))))
 (let (($x580 (and __node_68 (not __nodeactive_68))))
 (let (($x443 (and __node_71 __nodeactive_71)))
 (let (($x428 (and __node_68 __nodeactive_68)))
 (let (($x611 (or false (and $x428 $x443))))
 (let (($x615 (or $x611 (and $x580 $x613))))
 (= $x615 __edgerelax_78))))))))
(assert
 (let (($x620 (and __node_72 (not __nodeactive_72))))
 (let (($x593 (and __node_69 (not __nodeactive_69))))
 (let (($x622 (or false (and (and __node_69 __nodeactive_69) $x620))))
 (let (($x624 (or $x622 (and $x593 (and __node_72 __nodeactive_72)))))
 (let (($x626 (or $x624 (and $x593 $x620))))
 (= $x626 __edgerelax_79)))))))
(assert
 (let (($x631 (and __node_73 (not __nodeactive_73))))
 (let (($x600 (and __node_70 (not __nodeactive_70))))
 (let (($x633 (or false (and (and __node_70 __nodeactive_70) $x631))))
 (let (($x635 (or $x633 (and $x600 (and __node_73 __nodeactive_73)))))
 (let (($x637 (or $x635 (and $x600 $x631))))
 (= $x637 __edgerelax_80)))))))
(assert
 (let (($x642 (and __node_74 (not __nodeactive_74))))
 (let (($x613 (and __node_71 (not __nodeactive_71))))
 (let (($x644 (or false (and (and __node_71 __nodeactive_71) $x642))))
 (let (($x647 (or $x644 (and $x613 (and __node_74 __nodeactive_74)))))
 (let (($x649 (or $x647 (and $x613 $x642))))
 (= $x649 __edgerelax_81)))))))
(assert
 (let (($x656 (and __node_75 (not __nodeactive_75))))
 (let (($x620 (and __node_72 (not __nodeactive_72))))
 (let (($x458 (and __node_75 __nodeactive_75)))
 (let (($x448 (and __node_72 __nodeactive_72)))
 (let (($x654 (or false (and $x448 $x458))))
 (let (($x658 (or $x654 (and $x620 $x656))))
 (= $x658 __edgerelax_82))))))))
(assert
 (let (($x663 (and __node_76 (not __nodeactive_76))))
 (let (($x620 (and __node_72 (not __nodeactive_72))))
 (let (($x665 (or false (and (and __node_72 __nodeactive_72) $x663))))
 (let (($x667 (or $x665 (and $x620 (and __node_76 __nodeactive_76)))))
 (let (($x669 (or $x667 (and $x620 $x663))))
 (= $x669 __edgerelax_83)))))))
(assert
 (let (($x663 (and __node_76 (not __nodeactive_76))))
 (let (($x631 (and __node_73 (not __nodeactive_73))))
 (let (($x674 (or false (and (and __node_73 __nodeactive_73) $x663))))
 (let (($x676 (or $x674 (and $x631 (and __node_76 __nodeactive_76)))))
 (let (($x678 (or $x676 (and $x631 $x663))))
 (= $x678 __edgerelax_84)))))))
(assert
 (let (($x683 (and __node_77 (not __nodeactive_77))))
 (let (($x656 (and __node_75 (not __nodeactive_75))))
 (let (($x685 (or false (and (and __node_75 __nodeactive_75) $x683))))
 (let (($x687 (or $x685 (and $x656 (and __node_77 __nodeactive_77)))))
 (let (($x689 (or $x687 (and $x656 $x683))))
 (= $x689 __edgerelax_85)))))))
(assert
 (let (($x694 (and __node_78 (not __nodeactive_78))))
 (let (($x663 (and __node_76 (not __nodeactive_76))))
 (let (($x696 (or false (and (and __node_76 __nodeactive_76) $x694))))
 (let (($x698 (or $x696 (and $x663 (and __node_78 __nodeactive_78)))))
 (let (($x700 (or $x698 (and $x663 $x694))))
 (= $x700 __edgerelax_86)))))))
(assert
 (let (($x707 (and __node_79 (not __nodeactive_79))))
 (let (($x683 (and __node_77 (not __nodeactive_77))))
 (let (($x476 (and __node_79 __nodeactive_79)))
 (let (($x468 (and __node_77 __nodeactive_77)))
 (let (($x705 (or false (and $x468 $x476))))
 (let (($x709 (or $x705 (and $x683 $x707))))
 (= $x709 __edgerelax_87))))))))
(assert
 (let (($x716 (and __node_80 (not __nodeactive_80))))
 (let (($x694 (and __node_78 (not __nodeactive_78))))
 (let (($x481 (and __node_80 __nodeactive_80)))
 (let (($x472 (and __node_78 __nodeactive_78)))
 (let (($x714 (or false (and $x472 $x481))))
 (let (($x718 (or $x714 (and $x694 $x716))))
 (= $x718 __edgerelax_88))))))))
(assert
 (let (($x725 (and __node_81 (not __nodeactive_81))))
 (let (($x642 (and __node_74 (not __nodeactive_74))))
 (let (($x486 (and __node_81 __nodeactive_81)))
 (let (($x645 (and __node_74 __nodeactive_74)))
 (let (($x723 (or false (and $x645 $x486))))
 (let (($x727 (or $x723 (and $x642 $x725))))
 (= $x727 __edgerelax_89))))))))
(assert
 (let (($x732 (and __node_82 (not __nodeactive_82))))
 (let (($x707 (and __node_79 (not __nodeactive_79))))
 (let (($x734 (or false (and (and __node_79 __nodeactive_79) $x732))))
 (let (($x736 (or $x734 (and $x707 (and __node_82 __nodeactive_82)))))
 (let (($x738 (or $x736 (and $x707 $x732))))
 (= $x738 __edgerelax_90)))))))
(assert
 (let (($x745 (and __node_83 (not __nodeactive_83))))
 (let (($x716 (and __node_80 (not __nodeactive_80))))
 (let (($x494 (and __node_83 __nodeactive_83)))
 (let (($x481 (and __node_80 __nodeactive_80)))
 (let (($x743 (or false (and $x481 $x494))))
 (let (($x747 (or $x743 (and $x716 $x745))))
 (= $x747 __edgerelax_91))))))))
(assert
 (let (($x752 (and __node_84 (not __nodeactive_84))))
 (let (($x725 (and __node_81 (not __nodeactive_81))))
 (let (($x754 (or false (and (and __node_81 __nodeactive_81) $x752))))
 (let (($x757 (or $x754 (and $x725 (and __node_84 __nodeactive_84)))))
 (let (($x759 (or $x757 (and $x725 $x752))))
 (= $x759 __edgerelax_92)))))))
(assert
 (let (($x745 (and __node_83 (not __nodeactive_83))))
 (let (($x732 (and __node_82 (not __nodeactive_82))))
 (let (($x764 (or false (and (and __node_82 __nodeactive_82) $x745))))
 (let (($x766 (or $x764 (and $x732 (and __node_83 __nodeactive_83)))))
 (let (($x768 (or $x766 (and $x732 $x745))))
 (= $x768 __edgerelax_93)))))))
(assert
 (let (($x752 (and __node_84 (not __nodeactive_84))))
 (let (($x745 (and __node_83 (not __nodeactive_83))))
 (let (($x773 (or false (and (and __node_83 __nodeactive_83) $x752))))
 (let (($x775 (or $x773 (and $x745 (and __node_84 __nodeactive_84)))))
 (let (($x777 (or $x775 (and $x745 $x752))))
 (= $x777 __edgerelax_94)))))))
(assert
 (let (($x752 (and __node_84 (not __nodeactive_84))))
 (let (($x745 (and __node_83 (not __nodeactive_83))))
 (let (($x773 (or false (and (and __node_83 __nodeactive_83) $x752))))
 (let (($x775 (or $x773 (and $x745 (and __node_84 __nodeactive_84)))))
 (let (($x777 (or $x775 (and $x745 $x752))))
 (let (($x494 (and __node_83 __nodeactive_83)))
 (let (($x732 (and __node_82 (not __nodeactive_82))))
 (let (($x764 (or false (and (and __node_82 __nodeactive_82) $x745))))
 (let (($x766 (or $x764 (and $x732 $x494))))
 (let (($x768 (or $x766 (and $x732 $x745))))
 (let (($x755 (and __node_84 __nodeactive_84)))
 (let (($x725 (and __node_81 (not __nodeactive_81))))
 (let (($x754 (or false (and (and __node_81 __nodeactive_81) $x752))))
 (let (($x757 (or $x754 (and $x725 $x755))))
 (let (($x759 (or $x757 (and $x725 $x752))))
 (let (($x743 (or false (and (and __node_80 __nodeactive_80) $x494))))
 (let (($x747 (or $x743 (and (and __node_80 (not __nodeactive_80)) $x745))))
 (let (($x490 (and __node_82 __nodeactive_82)))
 (let (($x707 (and __node_79 (not __nodeactive_79))))
 (let (($x734 (or false (and (and __node_79 __nodeactive_79) $x732))))
 (let (($x736 (or $x734 (and $x707 $x490))))
 (let (($x738 (or $x736 (and $x707 $x732))))
 (let (($x486 (and __node_81 __nodeactive_81)))
 (let (($x645 (and __node_74 __nodeactive_74)))
 (let (($x723 (or false (and $x645 $x486))))
 (let (($x727 (or $x723 (and (and __node_74 (not __nodeactive_74)) $x725))))
 (let (($x716 (and __node_80 (not __nodeactive_80))))
 (let (($x694 (and __node_78 (not __nodeactive_78))))
 (let (($x481 (and __node_80 __nodeactive_80)))
 (let (($x472 (and __node_78 __nodeactive_78)))
 (let (($x714 (or false (and $x472 $x481))))
 (let (($x718 (or $x714 (and $x694 $x716))))
 (let (($x476 (and __node_79 __nodeactive_79)))
 (let (($x468 (and __node_77 __nodeactive_77)))
 (let (($x705 (or false (and $x468 $x476))))
 (let (($x709 (or $x705 (and (and __node_77 (not __nodeactive_77)) $x707))))
 (let (($x696 (or false (and (and __node_76 __nodeactive_76) $x694))))
 (let (($x698 (or $x696 (and (and __node_76 (not __nodeactive_76)) $x472))))
 (let (($x700 (or $x698 (and (and __node_76 (not __nodeactive_76)) $x694))))
 (let (($x683 (and __node_77 (not __nodeactive_77))))
 (let (($x656 (and __node_75 (not __nodeactive_75))))
 (let (($x685 (or false (and (and __node_75 __nodeactive_75) $x683))))
 (let (($x687 (or $x685 (and $x656 $x468))))
 (let (($x689 (or $x687 (and $x656 $x683))))
 (let (($x663 (and __node_76 (not __nodeactive_76))))
 (let (($x631 (and __node_73 (not __nodeactive_73))))
 (let (($x674 (or false (and (and __node_73 __nodeactive_73) $x663))))
 (let (($x676 (or $x674 (and $x631 (and __node_76 __nodeactive_76)))))
 (let (($x678 (or $x676 (and $x631 $x663))))
 (let (($x463 (and __node_76 __nodeactive_76)))
 (let (($x620 (and __node_72 (not __nodeactive_72))))
 (let (($x665 (or false (and (and __node_72 __nodeactive_72) $x663))))
 (let (($x667 (or $x665 (and $x620 $x463))))
 (let (($x669 (or $x667 (and $x620 $x663))))
 (let (($x458 (and __node_75 __nodeactive_75)))
 (let (($x448 (and __node_72 __nodeactive_72)))
 (let (($x654 (or false (and $x448 $x458))))
 (let (($x658 (or $x654 (and $x620 $x656))))
 (let (($x642 (and __node_74 (not __nodeactive_74))))
 (let (($x613 (and __node_71 (not __nodeactive_71))))
 (let (($x644 (or false (and (and __node_71 __nodeactive_71) $x642))))
 (let (($x647 (or $x644 (and $x613 $x645))))
 (let (($x649 (or $x647 (and $x613 $x642))))
 (let (($x453 (and __node_73 __nodeactive_73)))
 (let (($x600 (and __node_70 (not __nodeactive_70))))
 (let (($x633 (or false (and (and __node_70 __nodeactive_70) $x631))))
 (let (($x635 (or $x633 (and $x600 $x453))))
 (let (($x637 (or $x635 (and $x600 $x631))))
 (let (($x622 (or false (and (and __node_69 __nodeactive_69) $x620))))
 (let (($x624 (or $x622 (and (and __node_69 (not __nodeactive_69)) $x448))))
 (let (($x626 (or $x624 (and (and __node_69 (not __nodeactive_69)) $x620))))
 (let (($x443 (and __node_71 __nodeactive_71)))
 (let (($x428 (and __node_68 __nodeactive_68)))
 (let (($x611 (or false (and $x428 $x443))))
 (let (($x615 (or $x611 (and (and __node_68 (not __nodeactive_68)) $x613))))
 (let (($x438 (and __node_70 __nodeactive_70)))
 (let (($x569 (and __node_67 (not __nodeactive_67))))
 (let (($x602 (or false (and (and __node_67 __nodeactive_67) $x600))))
 (let (($x604 (or $x602 (and $x569 $x438))))
 (let (($x606 (or $x604 (and $x569 $x600))))
 (let (($x593 (and __node_69 (not __nodeactive_69))))
 (let (($x556 (and __node_66 (not __nodeactive_66))))
 (let (($x433 (and __node_69 __nodeactive_69)))
 (let (($x418 (and __node_66 __nodeactive_66)))
 (let (($x591 (or false (and $x418 $x433))))
 (let (($x595 (or $x591 (and $x556 $x593))))
 (let (($x580 (and __node_68 (not __nodeactive_68))))
 (let (($x560 (and __node_65 (not __nodeactive_65))))
 (let (($x582 (or false (and (and __node_65 __nodeactive_65) $x580))))
 (let (($x584 (or $x582 (and $x560 $x428))))
 (let (($x586 (or $x584 (and $x560 $x580))))
 (let (($x571 (or false (and (and __node_65 __nodeactive_65) $x569))))
 (let (($x573 (or $x571 (and $x560 (and __node_67 __nodeactive_67)))))
 (let (($x575 (or $x573 (and $x560 $x569))))
 (let (($x558 (or false (and (and __node_65 __nodeactive_65) $x556))))
 (let (($x562 (or $x558 (and $x560 $x418))))
 (let (($x564 (or $x562 (and $x560 $x556))))
 (let ((?x567 (bvadd (_ bv0 5) (ite $x564 (_ bv1 5) (_ bv0 5)))))
 (let ((?x578 (bvadd ?x567 (ite $x575 (_ bv1 5) (_ bv0 5)))))
 (let ((?x589 (bvadd ?x578 (ite $x586 (_ bv1 5) (_ bv0 5)))))
 (let ((?x598 (bvadd ?x589 (ite $x595 (_ bv1 5) (_ bv0 5)))))
 (let ((?x609 (bvadd ?x598 (ite $x606 (_ bv1 5) (_ bv0 5)))))
 (let ((?x618 (bvadd ?x609 (ite $x615 (_ bv1 5) (_ bv0 5)))))
 (let ((?x629 (bvadd ?x618 (ite $x626 (_ bv1 5) (_ bv0 5)))))
 (let ((?x640 (bvadd ?x629 (ite $x637 (_ bv1 5) (_ bv0 5)))))
 (let ((?x652 (bvadd ?x640 (ite $x649 (_ bv1 5) (_ bv0 5)))))
 (let ((?x661 (bvadd ?x652 (ite $x658 (_ bv1 5) (_ bv0 5)))))
 (let ((?x672 (bvadd ?x661 (ite $x669 (_ bv1 5) (_ bv0 5)))))
 (let ((?x681 (bvadd ?x672 (ite $x678 (_ bv1 5) (_ bv0 5)))))
 (let ((?x692 (bvadd ?x681 (ite $x689 (_ bv1 5) (_ bv0 5)))))
 (let ((?x703 (bvadd ?x692 (ite $x700 (_ bv1 5) (_ bv0 5)))))
 (let ((?x712 (bvadd ?x703 (ite $x709 (_ bv1 5) (_ bv0 5)))))
 (let ((?x721 (bvadd ?x712 (ite $x718 (_ bv1 5) (_ bv0 5)))))
 (let ((?x730 (bvadd ?x721 (ite $x727 (_ bv1 5) (_ bv0 5)))))
 (let ((?x741 (bvadd ?x730 (ite $x738 (_ bv1 5) (_ bv0 5)))))
 (let ((?x750 (bvadd ?x741 (ite $x747 (_ bv1 5) (_ bv0 5)))))
 (let ((?x762 (bvadd ?x750 (ite $x759 (_ bv1 5) (_ bv0 5)))))
 (let ((?x771 (bvadd ?x762 (ite $x768 (_ bv1 5) (_ bv0 5)))))
 (bvule (bvadd ?x771 (ite $x777 (_ bv1 5) (_ bv0 5))) __edgestatusrelaxbound))))))))))))))))))))))))))))))))))))))))))))))))))))))))))))))))))))))))))))))))))))))))))))))))))))))))))))))))))))))))
(assert
 __nodeactive_65)
(assert
 (bvule __nodestatusrelaxbound (_ bv2 6)))
(assert
 (bvule __edgestatusrelaxbound (_ bv5 5)))
(check-sat)

